Route #1: 3 19 48 27 5
Route #2: 8 31 18 43 9 29 2 20 6 30 33 22 40
Route #3: 38 24 39 4 23 14 42 11 36 46 47 16
Route #4: 49 21 44 37 15 17 26 50 25 34 28 13 10 12
Route #5: 45 35 41 7 32
Route #6: 1
Route #7: 
Route #8: 
cost 1633.7538732392677
